10J3M/DAT/10J3MUTR-13.dat
10 3
23.6789 2.0817
24.4218 17.1427
38.6297 26.8132
33.6424 49.2639
31.1646 6.945
46.8356 36.4609
10.783 47.385
28.6253 42.1382
44.483 42.0538
41.8711 30.51
75.1986