10J3M/SOL/10J3MUTR-13.sol
solution status: optimal solution found
objective value:                      98.152693261696
x#1#1                               0.244627682732833 	(obj:0)
x#1#2                               0.755372317267167 	(obj:0)
x#2#3                                               1 	(obj:0)
x#3#1                                               1 	(obj:0)
x#4#1                               0.352512865462439 	(obj:0)
x#4#2                               0.564996829225332 	(obj:0)
x#4#3                              0.0824903053122282 	(obj:0)
x#5#2                               0.538285695013836 	(obj:0)
x#5#3                               0.461714304986164 	(obj:0)
x#6#3                                               1 	(obj:0)
x#8#3                               0.339943329330632 	(obj:0)
x#9#2                                               1 	(obj:0)
x#10#1                                              1 	(obj:0)
z                                     98.152693261696 	(obj:1)
